(set-logic QF_LIA)
(declare-fun x0 () Int)
(declare-fun x1 () Int)
(declare-fun x2 () Int)
(declare-fun x3 () Int)
(declare-fun x4 () Int)
(declare-fun x5 () Int)
(declare-fun x6 () Int)
(declare-fun x7 () Int)
(declare-fun x8 () Int)
(declare-fun x9 () Int)
(declare-fun A0 () Bool)
(declare-fun A1 () Bool)
(declare-fun A2 () Bool)
(declare-fun A3 () Bool)
(declare-fun A4 () Bool)
(declare-fun A5 () Bool)
(declare-fun A6 () Bool)
(declare-fun A7 () Bool)
(declare-fun A8 () Bool)
(declare-fun A9 () Bool)
(assert (let ((.def_0 (* (- 1) x7))) (let ((.def_1 (* 1 x2))) (let ((.def_2 (+ .def_1 .def_0))) (let ((.def_3 (< .def_2 1))) (let ((.def_4 (not .def_3))) (let ((.def_5 (not A1))) (let ((.def_6 (and .def_5 .def_4))) (let ((.def_7 (not .def_6))) (let ((.def_8 (* (- 1) x0))) (let ((.def_9 (+ .def_1 .def_8))) (let ((.def_10 (< .def_9 (- 1)))) (let ((.def_11 (or A6 .def_10))) (let ((.def_12 (not .def_11))) (let ((.def_13 (or .def_12 .def_7))) (let ((.def_14 (not .def_13))) (let ((.def_15 (* (- 1) x5))) (let ((.def_16 (< .def_15 (- 1)))) (let ((.def_17 (not .def_16))) (let ((.def_18 (or .def_17 A7))) (let ((.def_19 (< .def_15 1))) (let ((.def_20 (and A8 .def_19))) (let ((.def_21 (not .def_20))) (let ((.def_22 (and .def_21 .def_18))) (let ((.def_23 (or .def_22 .def_14))) (let ((.def_24 (not A4))) (let ((.def_25 (or .def_24 A2))) (let ((.def_26 (not .def_25))) (let ((.def_27 (* (- 1) x1))) (let ((.def_28 (+ .def_1 .def_27))) (let ((.def_29 (< .def_28 1))) (let ((.def_30 (not .def_29))) (let ((.def_31 (not A0))) (let ((.def_32 (and .def_31 .def_30))) (let ((.def_33 (or .def_32 .def_26))) (let ((.def_34 (not .def_33))) (let ((.def_35 (* 1 x6))) (let ((.def_36 (* 1 x1))) (let ((.def_37 (+ .def_36 .def_35))) (let ((.def_38 (< .def_37 (- 1)))) (let ((.def_39 (not .def_38))) (let ((.def_40 (* (- 1) x6))) (let ((.def_41 (* 1 x9))) (let ((.def_42 (+ .def_41 .def_40))) (let ((.def_43 (< .def_42 (- 1)))) (let ((.def_44 (not .def_43))) (let ((.def_45 (and .def_44 .def_39))) (let ((.def_46 (+ .def_1 .def_35))) (let ((.def_47 (< .def_46 (- 1)))) (let ((.def_48 (or .def_47 A7))) (let ((.def_49 (and .def_48 .def_45))) (let ((.def_50 (or .def_49 .def_34))) (let ((.def_51 (or .def_50 .def_23))) (let ((.def_52 (* 1 x8))) (let ((.def_53 (< .def_52 1))) (let ((.def_54 (* 1 x0))) (let ((.def_55 (* 1 x4))) (let ((.def_56 (+ .def_55 .def_54))) (let ((.def_57 (< .def_56 (- 1)))) (let ((.def_58 (not .def_57))) (let ((.def_59 (= .def_58 .def_53))) (let ((.def_60 (not .def_59))) (let ((.def_61 (not A6))) (let ((.def_62 (or .def_61 .def_31))) (let ((.def_63 (or .def_62 .def_60))) (let ((.def_64 (* 1 x5))) (let ((.def_65 (< .def_64 1))) (let ((.def_66 (not .def_65))) (let ((.def_67 (or A0 .def_66))) (let ((.def_68 (< .def_27 1))) (let ((.def_69 (or A1 .def_68))) (let ((.def_70 (not .def_69))) (let ((.def_71 (and .def_70 .def_67))) (let ((.def_72 (or .def_71 .def_63))) (let ((.def_73 (not A8))) (let ((.def_74 (or .def_73 A3))) (let ((.def_75 (< .def_41 (- 1)))) (let ((.def_76 (not .def_75))) (let ((.def_77 (and .def_76 .def_73))) (let ((.def_78 (not .def_77))) (let ((.def_79 (or .def_78 .def_74))) (let ((.def_80 (not .def_79))) (let ((.def_81 (or .def_31 A0))) (let ((.def_82 (< .def_40 1))) (let ((.def_83 (* (- 1) x4))) (let ((.def_84 (+ .def_35 .def_83))) (let ((.def_85 (< .def_84 1))) (let ((.def_86 (and .def_85 .def_82))) (let ((.def_87 (and .def_86 .def_81))) (let ((.def_88 (and .def_87 .def_80))) (let ((.def_89 (and .def_88 .def_72))) (let ((.def_90 (not .def_89))) (let ((.def_91 (or .def_90 .def_51))) (let ((.def_92 (not A5))) (let ((.def_93 (or A0 .def_92))) (let ((.def_94 (+ .def_40 .def_41))) (let ((.def_95 (< .def_94 (- 1)))) (let ((.def_96 (not .def_95))) (let ((.def_97 (or .def_96 A9))) (let ((.def_98 (or .def_97 .def_93))) (let ((.def_99 (not A2))) (let ((.def_100 (and .def_99 A5))) (let ((.def_101 (and A4 A0))) (let ((.def_102 (and .def_101 .def_100))) (let ((.def_103 (not .def_102))) (let ((.def_104 (or .def_103 .def_98))) (let ((.def_105 (or A7 A0))) (let ((.def_106 (< .def_56 1))) (let ((.def_107 (not .def_106))) (let ((.def_108 (and .def_24 .def_107))) (let ((.def_109 (and .def_108 .def_105))) (let ((.def_110 (not .def_109))) (let ((.def_111 (* 1 x7))) (let ((.def_112 (+ .def_111 .def_64))) (let ((.def_113 (< .def_112 1))) (let ((.def_114 (+ .def_27 .def_0))) (let ((.def_115 (< .def_114 1))) (let ((.def_116 (and .def_115 .def_113))) (let ((.def_117 (not A3))) (let ((.def_118 (* 1 x3))) (let ((.def_119 (+ .def_118 .def_40))) (let ((.def_120 (< .def_119 1))) (let ((.def_121 (and .def_120 .def_117))) (let ((.def_122 (or .def_121 .def_116))) (let ((.def_123 (or .def_122 .def_110))) (let ((.def_124 (not .def_123))) (let ((.def_125 (= .def_124 .def_104))) (let ((.def_126 (not .def_125))) (let ((.def_127 (< .def_40 (- 1)))) (let ((.def_128 (and .def_127 .def_24))) (let ((.def_129 (< .def_1 (- 1)))) (let ((.def_130 (not .def_129))) (let ((.def_131 (and .def_130 .def_5))) (let ((.def_132 (not .def_131))) (let ((.def_133 (and .def_132 .def_128))) (let ((.def_134 (or .def_61 .def_16))) (let ((.def_135 (+ .def_0 .def_27))) (let ((.def_136 (< .def_135 (- 1)))) (let ((.def_137 (not .def_136))) (let ((.def_138 (< .def_54 (- 1)))) (let ((.def_139 (and .def_138 .def_137))) (let ((.def_140 (and .def_139 .def_134))) (let ((.def_141 (and .def_140 .def_133))) (let ((.def_142 (* (- 1) x9))) (let ((.def_143 (+ .def_27 .def_142))) (let ((.def_144 (< .def_143 (- 1)))) (let ((.def_145 (not .def_144))) (let ((.def_146 (not A7))) (let ((.def_147 (or .def_146 .def_145))) (let ((.def_148 (not .def_147))) (let ((.def_149 (not A9))) (let ((.def_150 (and A6 .def_149))) (let ((.def_151 (and .def_150 .def_148))) (let ((.def_152 (< .def_36 1))) (let ((.def_153 (or .def_152 .def_92))) (let ((.def_154 (not .def_153))) (let ((.def_155 (+ .def_52 .def_0))) (let ((.def_156 (< .def_155 1))) (let ((.def_157 (or .def_31 .def_156))) (let ((.def_158 (not .def_157))) (let ((.def_159 (and .def_158 .def_154))) (let ((.def_160 (and .def_159 .def_151))) (let ((.def_161 (not .def_160))) (let ((.def_162 (or .def_161 .def_141))) (let ((.def_163 (or .def_162 .def_126))) (let ((.def_164 (and .def_163 .def_91))) (let ((.def_165 (not .def_164))) (let ((.def_166 (= .def_31 A4))) (let ((.def_167 (not .def_166))) (let ((.def_168 (< .def_111 1))) (let ((.def_169 (+ .def_1 .def_83))) (let ((.def_170 (< .def_169 (- 1)))) (let ((.def_171 (not .def_170))) (let ((.def_172 (or .def_171 .def_168))) (let ((.def_173 (not .def_172))) (let ((.def_174 (or .def_173 .def_167))) (let ((.def_175 (not .def_138))) (let ((.def_176 (or .def_175 .def_149))) (let ((.def_177 (and A2 A0))) (let ((.def_178 (= .def_177 .def_176))) (let ((.def_179 (not .def_178))) (let ((.def_180 (and .def_179 .def_174))) (let ((.def_181 (< .def_41 1))) (let ((.def_182 (= A4 .def_181))) (let ((.def_183 (or A1 A2))) (let ((.def_184 (or .def_183 .def_182))) (let ((.def_185 (not .def_184))) (let ((.def_186 (+ .def_118 .def_55))) (let ((.def_187 (< .def_186 (- 1)))) (let ((.def_188 (not .def_187))) (let ((.def_189 (and .def_19 .def_188))) (let ((.def_190 (< .def_55 1))) (let ((.def_191 (not .def_190))) (let ((.def_192 (or .def_191 .def_19))) (let ((.def_193 (or .def_192 .def_189))) (let ((.def_194 (not .def_193))) (let ((.def_195 (and .def_194 .def_185))) (let ((.def_196 (and .def_195 .def_180))) (let ((.def_197 (not .def_196))) (let ((.def_198 (not .def_19))) (let ((.def_199 (and .def_198 A7))) (let ((.def_200 (not .def_199))) (let ((.def_201 (and .def_190 .def_5))) (let ((.def_202 (or .def_201 .def_200))) (let ((.def_203 (not .def_202))) (let ((.def_204 (= A5 .def_99))) (let ((.def_205 (+ .def_36 .def_118))) (let ((.def_206 (< .def_205 (- 1)))) (let ((.def_207 (not .def_206))) (let ((.def_208 (and .def_207 .def_146))) (let ((.def_209 (not .def_208))) (let ((.def_210 (= .def_209 .def_204))) (let ((.def_211 (not .def_210))) (let ((.def_212 (and .def_211 .def_203))) (let ((.def_213 (not .def_212))) (let ((.def_214 (+ .def_83 .def_15))) (let ((.def_215 (< .def_214 (- 1)))) (let ((.def_216 (not .def_215))) (let ((.def_217 (or .def_216 A6))) (let ((.def_218 (and .def_16 A0))) (let ((.def_219 (and .def_218 .def_217))) (let ((.def_220 (not .def_219))) (let ((.def_221 (and A3 A7))) (let ((.def_222 (* (- 1) x8))) (let ((.def_223 (+ .def_111 .def_222))) (let ((.def_224 (< .def_223 1))) (let ((.def_225 (and .def_138 .def_224))) (let ((.def_226 (and .def_225 .def_221))) (let ((.def_227 (not .def_226))) (let ((.def_228 (= .def_227 .def_220))) (let ((.def_229 (or .def_228 .def_213))) (let ((.def_230 (not .def_229))) (let ((.def_231 (or .def_230 .def_197))) (let ((.def_232 (not .def_231))) (let ((.def_233 (* (- 1) x3))) (let ((.def_234 (+ .def_233 .def_40))) (let ((.def_235 (< .def_234 (- 1)))) (let ((.def_236 (or .def_235 .def_61))) (let ((.def_237 (or .def_92 .def_61))) (let ((.def_238 (not .def_237))) (let ((.def_239 (or .def_238 .def_236))) (let ((.def_240 (not .def_239))) (let ((.def_241 (+ .def_41 .def_111))) (let ((.def_242 (< .def_241 (- 1)))) (let ((.def_243 (and .def_5 .def_242))) (let ((.def_244 (+ .def_55 .def_64))) (let ((.def_245 (< .def_244 1))) (let ((.def_246 (not .def_245))) (let ((.def_247 (and .def_246 .def_66))) (let ((.def_248 (or .def_247 .def_243))) (let ((.def_249 (not .def_248))) (let ((.def_250 (and .def_249 .def_240))) (let ((.def_251 (not .def_250))) (let ((.def_252 (+ .def_83 .def_54))) (let ((.def_253 (< .def_252 1))) (let ((.def_254 (not .def_253))) (let ((.def_255 (+ .def_64 .def_1))) (let ((.def_256 (< .def_255 (- 1)))) (let ((.def_257 (or .def_256 .def_254))) (let ((.def_258 (not .def_257))) (let ((.def_259 (+ .def_54 .def_142))) (let ((.def_260 (< .def_259 (- 1)))) (let ((.def_261 (not .def_260))) (let ((.def_262 (and .def_261 .def_99))) (let ((.def_263 (not .def_262))) (let ((.def_264 (and .def_263 .def_258))) (let ((.def_265 (not .def_264))) (let ((.def_266 (< .def_55 (- 1)))) (let ((.def_267 (* (- 1) x2))) (let ((.def_268 (< .def_267 1))) (let ((.def_269 (or .def_268 .def_266))) (let ((.def_270 (not .def_269))) (let ((.def_271 (+ .def_111 .def_8))) (let ((.def_272 (< .def_271 1))) (let ((.def_273 (not .def_272))) (let ((.def_274 (and A9 .def_273))) (let ((.def_275 (and .def_274 .def_270))) (let ((.def_276 (not .def_275))) (let ((.def_277 (or .def_276 .def_265))) (let ((.def_278 (not .def_277))) (let ((.def_279 (and .def_278 .def_251))) (let ((.def_280 (not .def_279))) (let ((.def_281 (or A2 .def_146))) (let ((.def_282 (or A5 .def_5))) (let ((.def_283 (not .def_282))) (let ((.def_284 (and .def_283 .def_281))) (let ((.def_285 (or A9 .def_24))) (let ((.def_286 (not .def_285))) (let ((.def_287 (< .def_8 1))) (let ((.def_288 (< .def_233 1))) (let ((.def_289 (or .def_288 .def_287))) (let ((.def_290 (or .def_289 .def_286))) (let ((.def_291 (or .def_290 .def_284))) (let ((.def_292 (not .def_291))) (let ((.def_293 (< .def_27 (- 1)))) (let ((.def_294 (and .def_293 A3))) (let ((.def_295 (not .def_294))) (let ((.def_296 (and .def_19 .def_149))) (let ((.def_297 (not .def_296))) (let ((.def_298 (and .def_297 .def_295))) (let ((.def_299 (not .def_298))) (let ((.def_300 (+ .def_83 .def_118))) (let ((.def_301 (< .def_300 (- 1)))) (let ((.def_302 (and .def_301 .def_146))) (let ((.def_303 (< .def_36 (- 1)))) (let ((.def_304 (not .def_303))) (let ((.def_305 (and .def_149 .def_304))) (let ((.def_306 (and .def_305 .def_302))) (let ((.def_307 (not .def_306))) (let ((.def_308 (= .def_307 .def_299))) (let ((.def_309 (not .def_308))) (let ((.def_310 (and .def_309 .def_292))) (let ((.def_311 (not .def_310))) (let ((.def_312 (and .def_311 .def_280))) (let ((.def_313 (or .def_312 .def_232))) (let ((.def_314 (not .def_313))) (let ((.def_315 (or .def_314 .def_165))) (let ((.def_316 (<= x9 1))) (let ((.def_317 (<= 0 x9))) (let ((.def_318 (<= x8 1))) (let ((.def_319 (<= 0 x8))) (let ((.def_320 (<= x7 1))) (let ((.def_321 (<= 0 x7))) (let ((.def_322 (<= x6 1))) (let ((.def_323 (<= 0 x6))) (let ((.def_324 (<= x5 1))) (let ((.def_325 (<= 0 x5))) (let ((.def_326 (<= x4 1))) (let ((.def_327 (<= 0 x4))) (let ((.def_328 (<= x3 1))) (let ((.def_329 (<= 0 x3))) (let ((.def_330 (<= x2 1))) (let ((.def_331 (<= 0 x2))) (let ((.def_332 (<= x1 1))) (let ((.def_333 (<= 0 x1))) (let ((.def_334 (<= x0 1))) (let ((.def_335 (<= 0 x0))) (let ((.def_336 (and .def_335 .def_334 .def_333 .def_332 .def_331 .def_330 .def_329 .def_328 .def_327 .def_326 .def_325 .def_324 .def_323 .def_322 .def_321 .def_320 .def_319 .def_318 .def_317 .def_316 .def_315))) .def_336))))))))))))))))))))))))))))))))))))))))))))))))))))))))))))))))))))))))))))))))))))))))))))))))))))))))))))))))))))))))))))))))))))))))))))))))))))))))))))))))))))))))))))))))))))))))))))))))))))))))))))))))))))))))))))))))))))))))))))))))))))))))))))))))))))))))))))))))))))))))))))))))))))))))))))))))))))))))))))))))))))))))))))))))))
(check-sat)
